1111111 AB
405 435 465 495 525 555 585 615 645 675 705 735 765 795 825 855 885 915 945 975 1005 1035 1065 1095 1125 1155 1185 1215 1245 1275 1305
1111111 BA
405 435 465 495 525 555 585 615 645 675 705 735 765 795 825 855 885 915 945 975 1005 1035 1065 1095 1125 1155 1185 1215 1245 1275 1305
